10

 O    -0.48289594967240    -0.04495684996950     1.23808162916007
 C     1.47182011900150     0.08371305994321    -0.19038304987084
 C    -0.04033139997264    -0.00327326999778     0.10341722992984
 C    -0.95267393935369    -0.03541833997597    -1.14040227922634
 H     2.03402022862010     0.10172575993099     0.73754754949964
 H     1.69118710885268     0.98467282933199    -0.75654118948675
 H     1.78751655878733    -0.77197436947628    -0.78075944947032
 H    -0.80709740945246     0.86296409941456    -1.73379461882377
 H    -0.70885866951910    -0.89355200939380    -1.76052908880564
 H    -1.99368664864746    -0.09820089993338    -0.84073671942963
