13

 C    -0.17804253606266    -0.63880123536354     0.04330067683173
 C    -0.50979324656304     0.76085804123195     0.67075897473964
 O    -0.92703040716641     1.70529788090638    -0.24874072954830
 C     1.34767408883752    -0.76824482741637    -0.16651284109788
 N    -0.89368384052425    -0.71319566291902    -1.26246401876621
 O    -0.39273382203352     1.01976107932038     1.85300488869964
 H    -0.41437575420953    -1.39309179136216    -1.87048487496348
 H    -0.50546821419820    -1.41359587715308     0.74285950166182
 H    -1.00355917873506     1.18274720836224    -1.08782407790324
 H     1.70581950213692    -0.00265008759793    -0.84866337221881
 H     1.59130912182889    -1.74278091669803    -0.58058464092535
 H     1.86136463262955    -0.65864727570217     0.78366265638237
 H    -1.83348034595035    -1.10565653558959    -1.10031214293476
