14

 N    -2.43685169924084    -0.00014992988744     0.23559695613281
 C    -0.99933795083942    -0.00002501739584     0.09330271459184
 C    -0.29533505760175     1.20283620802344     0.06101994003247
 C    -0.29512771556588    -1.20277589002833     0.06105935376807
 C     1.08696395158082     1.19745751540451    -0.00316790769516
 C     1.08717089457972    -1.19715275976295    -0.00312856900571
 C     1.78558921984943     0.00020778285550    -0.03507367555695
 H    -0.83861307955976     2.13784341327241     0.08611232542260
 H    -0.83824412212881    -2.13787065018391     0.08618288365698
 H     1.62329108185300     2.13804742009509    -0.02955967411432
 H     1.62366001277540    -2.13765581837423    -0.02948870404258
 H     2.86550888934547     0.00030228078091    -0.08751557437863
 H    -2.84136796208020    -0.83000795652113    -0.21792020565945
 H    -2.84150646298100     0.82964340172264    -0.21791986314900
