16

 O     1.89408907261303    -0.65078024228990     0.00013742681879
 C     0.56107063099375    -0.22452694087859     0.00010166772933
 C     0.12394774678620     1.09557991859162     0.00006682013357
 C    -0.38318455898014    -1.26051499337371     0.00010086027389
 C    -1.23882728298531     1.36836611232805     0.00003283029936
 C    -1.73124978856180    -0.97352434130073     0.00006725782554
 C    -2.16877013141081     0.34741829382151     0.00003313041494
 C     2.86468388734761     0.40284166060242     0.00016513945510
 H     0.82654458461203     1.91366565632000     0.00006582778401
 H    -0.03002045043107    -2.28286296490910     0.00012768719244
 H    -1.56772548273740     2.40016812850390     0.00000610365562
 H    -2.45158188390003    -1.78243787719640     0.00006802684455
 H    -3.22695274799743     0.57074122174053     0.00000722104219
 H     2.79117791684132     1.03660406288356     0.88857850274076
 H     2.79124123712064     1.03659318386018    -0.88826121326814
 H     3.84295725086795    -0.08153087854491     0.00020271105760
