12

 C     1.38683682746274    -0.00000000000004    -0.00000000000000
 C     0.69340748464898     1.20100138102793     0.00000000000000
 C    -0.69340748464893     1.20100138102792     0.00000000000000
 C    -1.38683682746264     0.00000000000015     0.00000000000000
 C    -0.69340748464889    -1.20100138102779    -0.00000000000000
 C     0.69340748464893    -1.20100138102782     0.00000000000000
 H     2.46938788246764    -0.00000000000001    -0.00000000000000
 H     1.23460363746791     2.13854346451336    -0.00000000000000
 H    -1.23460363746781     2.13854346451333     0.00000000000000
 H    -2.46938788246750     0.00000000000003    -0.00000000000000
 H    -1.23460363746787    -2.13854346451328    -0.00000000000000
 H     1.23460363746785    -2.13854346451339    -0.00000000000000
