14

 C     2.11469471172537     1.41135677433275    -8.93660899456696
 C     3.60533463184375     1.40828700160061    -8.54550251768435
 C     4.22854478185828    -0.00408629477806    -8.60419364007987
 C     5.71919711823083    -0.00704838297130    -8.21313435728202
 H     1.54077302456433     0.77697280605294    -8.26763464422394
 H     1.70745283780716     2.41700968448799    -8.88493376967815
 H     1.98249709738215     1.04221221319772    -9.94933611061386
 H     4.15396187845389     2.07013197360516    -9.21295442002686
 H     3.71397004728973     1.80637794896512    -7.53841208166612
 H     3.67995070776965    -0.66584288976305    -7.93662233803619
 H     4.11975116501436    -0.40219218994764    -9.61127762087764
 H     6.12639111929278    -1.01272437758909    -8.26455643100983
 H     5.85140203215259     0.36240408551683    -7.20050877997266
 H     6.29307884656276     0.62714164728326    -8.88232429420707
