10

 C     2.35687433740009     1.40616972794895    -9.42720233403978
 C     3.62768251865886     1.39538433944767    -9.09523281544192
 C     4.47193262640556     0.16860153490164    -9.06669600719940
 C     5.74269594476522     0.15783411539316    -8.73450606974872
 H     1.83089206029151     0.50354207415973    -9.70737183453861
 H     1.77309271314807     2.31630305810177    -9.43722980469323
 H     4.12826798125819     2.31679442267525    -8.81873834218329
 H     3.97148234587737    -0.75281481920048    -9.34336466515149
 H     6.32651765253575    -0.75225843274178    -8.72454373547698
 H     6.26856181961018     1.06044397930641    -8.45411439148007
